
;this file is automatically generated: Mon Nov 02 10:36:08 CST 2020

;declarations generated

(declare-fun oclExcludes ( Int Int) Bool)
(declare-fun Cardinality ( Int) Int)
(declare-fun type_9242fdee_0bef_450f_b65d_2a985578da97_Class10 ( Int) Bool)
(declare-fun type_9242fdee_0bef_450f_b65d_2a985578da97_Class11 ( Int) Bool)
(declare-fun type_9242fdee_0bef_450f_b65d_2a985578da97_Class12 ( Int) Bool)
(declare-fun type_9242fdee_0bef_450f_b65d_2a985578da97_Class20 ( Int) Bool)
(declare-fun type_9242fdee_0bef_450f_b65d_2a985578da97_Class21 ( Int) Bool)
(declare-fun type_9242fdee_0bef_450f_b65d_2a985578da97_Class22 ( Int) Bool)
(declare-fun type_9242fdee_0bef_450f_b65d_2a985578da97_Class23 ( Int) Bool)
(declare-fun type_9242fdee_0bef_450f_b65d_2a985578da97_Class13 ( Int) Bool)
(declare-fun type_9242fdee_0bef_450f_b65d_2a985578da97_Class14 ( Int) Bool)
(declare-fun type_9242fdee_0bef_450f_b65d_2a985578da97_Class15 ( Int) Bool)
(declare-fun type_9242fdee_0bef_450f_b65d_2a985578da97_Class16 ( Int) Bool)
(declare-fun type_9242fdee_0bef_450f_b65d_2a985578da97_Class17 ( Int) Bool)
(declare-fun type_9242fdee_0bef_450f_b65d_2a985578da97_Class18 ( Int) Bool)
(declare-fun type_9242fdee_0bef_450f_b65d_2a985578da97_Class19 ( Int) Bool)
(declare-fun type_9242fdee_0bef_450f_b65d_2a985578da97_Class30 ( Int) Bool)
(declare-fun type_9242fdee_0bef_450f_b65d_2a985578da97_Class31 ( Int) Bool)
(declare-fun type_9242fdee_0bef_450f_b65d_2a985578da97_Class32 ( Int) Bool)
(declare-fun type_9242fdee_0bef_450f_b65d_2a985578da97_Class33 ( Int) Bool)
(declare-fun type_9242fdee_0bef_450f_b65d_2a985578da97_Class34 ( Int) Bool)
(declare-fun type_9242fdee_0bef_450f_b65d_2a985578da97_Class24 ( Int) Bool)
(declare-fun type_9242fdee_0bef_450f_b65d_2a985578da97_Class25 ( Int) Bool)
(declare-fun type_9242fdee_0bef_450f_b65d_2a985578da97_Class26 ( Int) Bool)
(declare-fun type_9242fdee_0bef_450f_b65d_2a985578da97_Class27 ( Int) Bool)
(declare-fun type_9242fdee_0bef_450f_b65d_2a985578da97_Class28 ( Int) Bool)
(declare-fun type_9242fdee_0bef_450f_b65d_2a985578da97_Class29 ( Int) Bool)
(declare-fun type_9242fdee_0bef_450f_b65d_2a985578da97_Class40 ( Int) Bool)
(declare-fun type_9242fdee_0bef_450f_b65d_2a985578da97_Class41 ( Int) Bool)
(declare-fun type_9242fdee_0bef_450f_b65d_2a985578da97_Class42 ( Int) Bool)
(declare-fun type_9242fdee_0bef_450f_b65d_2a985578da97_Class43 ( Int) Bool)
(declare-fun type_9242fdee_0bef_450f_b65d_2a985578da97_Class44 ( Int) Bool)
(declare-fun type_9242fdee_0bef_450f_b65d_2a985578da97_Class45 ( Int) Bool)
(declare-fun class4_Class4IntAttr4 ( Int) Int)
(declare-fun class4_Class4IntAttr3 ( Int) Int)
(declare-fun type_9242fdee_0bef_450f_b65d_2a985578da97_Class35 ( Int) Bool)
(declare-fun type_9242fdee_0bef_450f_b65d_2a985578da97_Class36 ( Int) Bool)
(declare-fun type_9242fdee_0bef_450f_b65d_2a985578da97_Class37 ( Int) Bool)
(declare-fun type_9242fdee_0bef_450f_b65d_2a985578da97_Class38 ( Int) Bool)
(declare-fun type_9242fdee_0bef_450f_b65d_2a985578da97_Class39 ( Int) Bool)
(declare-fun type_9242fdee_0bef_450f_b65d_2a985578da97_Class50 ( Int) Bool)
(declare-fun type_9242fdee_0bef_450f_b65d_2a985578da97_Class51 ( Int) Bool)
(declare-fun type_9242fdee_0bef_450f_b65d_2a985578da97_Class52 ( Int) Bool)
(declare-fun type_9242fdee_0bef_450f_b65d_2a985578da97_Class53 ( Int) Bool)
(declare-fun type_9242fdee_0bef_450f_b65d_2a985578da97_Class54 ( Int) Bool)
(declare-fun obj_cc4953a0_a334_4dff_be8d_c46d6857fdcb ( Int) Int)
(declare-fun type_9242fdee_0bef_450f_b65d_2a985578da97_Class55 ( Int) Bool)
(declare-fun type_9242fdee_0bef_450f_b65d_2a985578da97_Class46 ( Int) Bool)
(declare-fun type_9242fdee_0bef_450f_b65d_2a985578da97_Class47 ( Int) Bool)
(declare-fun type_9242fdee_0bef_450f_b65d_2a985578da97_Class48 ( Int) Bool)
(declare-fun type_9242fdee_0bef_450f_b65d_2a985578da97_Class49 ( Int) Bool)
(declare-fun oclSelect ( Int Bool) Int)
(declare-fun type_9242fdee_0bef_450f_b65d_2a985578da97_Class2 ( Int) Bool)
(declare-fun type_9242fdee_0bef_450f_b65d_2a985578da97_Class3 ( Int) Bool)
(declare-fun type_9242fdee_0bef_450f_b65d_2a985578da97_Class4 ( Int) Bool)
(declare-fun type_9242fdee_0bef_450f_b65d_2a985578da97_Class5 ( Int) Bool)
(declare-fun type_9242fdee_0bef_450f_b65d_2a985578da97_Class0 ( Int) Bool)
(declare-fun type_9242fdee_0bef_450f_b65d_2a985578da97_Class1 ( Int) Bool)
(declare-fun type_9242fdee_0bef_450f_b65d_2a985578da97_Class6 ( Int) Bool)
(declare-fun type_9242fdee_0bef_450f_b65d_2a985578da97_Class7 ( Int) Bool)
(declare-fun type_9242fdee_0bef_450f_b65d_2a985578da97_Class8 ( Int) Bool)
(declare-fun Enum0 ( Int) Int)
(declare-fun type_9242fdee_0bef_450f_b65d_2a985578da97_Class9 ( Int) Bool)
(declare-fun Enum1 ( Int) Int)
(declare-fun Enum2 ( Int) Int)
(declare-fun container_ ( Int) Int)
(declare-fun oclIncludes ( Int Int) Bool)
(declare-fun ObjAt ( Int Int) Int)

;formula(s) generated
(assert (! (forall ((v Int)) (=> ( type_9242fdee_0bef_450f_b65d_2a985578da97_Class4 v )  (< ( class4_Class4IntAttr3 ( obj_cc4953a0_a334_4dff_be8d_c46d6857fdcb v )  )  8))):named l0))
(assert (! (forall ((c4_2 Int)(c4_1 Int)) (=> (and ( type_9242fdee_0bef_450f_b65d_2a985578da97_Class4 c4_1 )  ( type_9242fdee_0bef_450f_b65d_2a985578da97_Class4 c4_2 ) ) (<= ( class4_Class4IntAttr4 ( obj_cc4953a0_a334_4dff_be8d_c46d6857fdcb c4_1 )  )  ( class4_Class4IntAttr3 ( obj_cc4953a0_a334_4dff_be8d_c46d6857fdcb c4_2 )  ) ))):named l1))
(assert (! (exists ((o Int)) ( type_9242fdee_0bef_450f_b65d_2a985578da97_Class0 ( obj_cc4953a0_a334_4dff_be8d_c46d6857fdcb o )  ) ):named c0))
(assert (! (exists ((o Int)) (and (and (and (and (and ( type_9242fdee_0bef_450f_b65d_2a985578da97_Class1 ( obj_cc4953a0_a334_4dff_be8d_c46d6857fdcb o )  )  ( type_9242fdee_0bef_450f_b65d_2a985578da97_Class45 ( obj_cc4953a0_a334_4dff_be8d_c46d6857fdcb o )  ) ) ( type_9242fdee_0bef_450f_b65d_2a985578da97_Class12 ( obj_cc4953a0_a334_4dff_be8d_c46d6857fdcb o )  ) ) ( type_9242fdee_0bef_450f_b65d_2a985578da97_Class33 ( obj_cc4953a0_a334_4dff_be8d_c46d6857fdcb o )  ) ) ( type_9242fdee_0bef_450f_b65d_2a985578da97_Class22 ( obj_cc4953a0_a334_4dff_be8d_c46d6857fdcb o )  ) ) ( type_9242fdee_0bef_450f_b65d_2a985578da97_Class39 ( obj_cc4953a0_a334_4dff_be8d_c46d6857fdcb o )  ) )):named c1))
(assert (! (exists ((o Int)) (and (and (and (and (and (and (and (and (and ( type_9242fdee_0bef_450f_b65d_2a985578da97_Class10 ( obj_cc4953a0_a334_4dff_be8d_c46d6857fdcb o )  )  ( type_9242fdee_0bef_450f_b65d_2a985578da97_Class45 ( obj_cc4953a0_a334_4dff_be8d_c46d6857fdcb o )  ) ) ( type_9242fdee_0bef_450f_b65d_2a985578da97_Class12 ( obj_cc4953a0_a334_4dff_be8d_c46d6857fdcb o )  ) ) ( type_9242fdee_0bef_450f_b65d_2a985578da97_Class55 ( obj_cc4953a0_a334_4dff_be8d_c46d6857fdcb o )  ) ) ( type_9242fdee_0bef_450f_b65d_2a985578da97_Class33 ( obj_cc4953a0_a334_4dff_be8d_c46d6857fdcb o )  ) ) ( type_9242fdee_0bef_450f_b65d_2a985578da97_Class22 ( obj_cc4953a0_a334_4dff_be8d_c46d6857fdcb o )  ) ) ( type_9242fdee_0bef_450f_b65d_2a985578da97_Class29 ( obj_cc4953a0_a334_4dff_be8d_c46d6857fdcb o )  ) ) ( type_9242fdee_0bef_450f_b65d_2a985578da97_Class39 ( obj_cc4953a0_a334_4dff_be8d_c46d6857fdcb o )  ) ) ( type_9242fdee_0bef_450f_b65d_2a985578da97_Class50 ( obj_cc4953a0_a334_4dff_be8d_c46d6857fdcb o )  ) ) ( type_9242fdee_0bef_450f_b65d_2a985578da97_Class41 ( obj_cc4953a0_a334_4dff_be8d_c46d6857fdcb o )  ) )):named c2))
(assert (! (exists ((o Int)) ( type_9242fdee_0bef_450f_b65d_2a985578da97_Class11 ( obj_cc4953a0_a334_4dff_be8d_c46d6857fdcb o )  ) ):named c3))
(assert (! (exists ((o Int)) (and (and (and ( type_9242fdee_0bef_450f_b65d_2a985578da97_Class12 ( obj_cc4953a0_a334_4dff_be8d_c46d6857fdcb o )  )  ( type_9242fdee_0bef_450f_b65d_2a985578da97_Class33 ( obj_cc4953a0_a334_4dff_be8d_c46d6857fdcb o )  ) ) ( type_9242fdee_0bef_450f_b65d_2a985578da97_Class22 ( obj_cc4953a0_a334_4dff_be8d_c46d6857fdcb o )  ) ) ( type_9242fdee_0bef_450f_b65d_2a985578da97_Class39 ( obj_cc4953a0_a334_4dff_be8d_c46d6857fdcb o )  ) )):named c4))
(assert (! (exists ((o Int)) (and (and (and (and (and (and (and (and (and ( type_9242fdee_0bef_450f_b65d_2a985578da97_Class13 ( obj_cc4953a0_a334_4dff_be8d_c46d6857fdcb o )  )  ( type_9242fdee_0bef_450f_b65d_2a985578da97_Class45 ( obj_cc4953a0_a334_4dff_be8d_c46d6857fdcb o )  ) ) ( type_9242fdee_0bef_450f_b65d_2a985578da97_Class12 ( obj_cc4953a0_a334_4dff_be8d_c46d6857fdcb o )  ) ) ( type_9242fdee_0bef_450f_b65d_2a985578da97_Class55 ( obj_cc4953a0_a334_4dff_be8d_c46d6857fdcb o )  ) ) ( type_9242fdee_0bef_450f_b65d_2a985578da97_Class33 ( obj_cc4953a0_a334_4dff_be8d_c46d6857fdcb o )  ) ) ( type_9242fdee_0bef_450f_b65d_2a985578da97_Class22 ( obj_cc4953a0_a334_4dff_be8d_c46d6857fdcb o )  ) ) ( type_9242fdee_0bef_450f_b65d_2a985578da97_Class29 ( obj_cc4953a0_a334_4dff_be8d_c46d6857fdcb o )  ) ) ( type_9242fdee_0bef_450f_b65d_2a985578da97_Class39 ( obj_cc4953a0_a334_4dff_be8d_c46d6857fdcb o )  ) ) ( type_9242fdee_0bef_450f_b65d_2a985578da97_Class50 ( obj_cc4953a0_a334_4dff_be8d_c46d6857fdcb o )  ) ) ( type_9242fdee_0bef_450f_b65d_2a985578da97_Class41 ( obj_cc4953a0_a334_4dff_be8d_c46d6857fdcb o )  ) )):named c5))
(assert (! (exists ((o Int)) (and (and (and (and (and (and (and (and (and ( type_9242fdee_0bef_450f_b65d_2a985578da97_Class14 ( obj_cc4953a0_a334_4dff_be8d_c46d6857fdcb o )  )  ( type_9242fdee_0bef_450f_b65d_2a985578da97_Class45 ( obj_cc4953a0_a334_4dff_be8d_c46d6857fdcb o )  ) ) ( type_9242fdee_0bef_450f_b65d_2a985578da97_Class12 ( obj_cc4953a0_a334_4dff_be8d_c46d6857fdcb o )  ) ) ( type_9242fdee_0bef_450f_b65d_2a985578da97_Class55 ( obj_cc4953a0_a334_4dff_be8d_c46d6857fdcb o )  ) ) ( type_9242fdee_0bef_450f_b65d_2a985578da97_Class33 ( obj_cc4953a0_a334_4dff_be8d_c46d6857fdcb o )  ) ) ( type_9242fdee_0bef_450f_b65d_2a985578da97_Class22 ( obj_cc4953a0_a334_4dff_be8d_c46d6857fdcb o )  ) ) ( type_9242fdee_0bef_450f_b65d_2a985578da97_Class29 ( obj_cc4953a0_a334_4dff_be8d_c46d6857fdcb o )  ) ) ( type_9242fdee_0bef_450f_b65d_2a985578da97_Class39 ( obj_cc4953a0_a334_4dff_be8d_c46d6857fdcb o )  ) ) ( type_9242fdee_0bef_450f_b65d_2a985578da97_Class50 ( obj_cc4953a0_a334_4dff_be8d_c46d6857fdcb o )  ) ) ( type_9242fdee_0bef_450f_b65d_2a985578da97_Class41 ( obj_cc4953a0_a334_4dff_be8d_c46d6857fdcb o )  ) )):named c6))
(assert (! (exists ((o Int)) ( type_9242fdee_0bef_450f_b65d_2a985578da97_Class15 ( obj_cc4953a0_a334_4dff_be8d_c46d6857fdcb o )  ) ):named c7))
(assert (! (exists ((o Int)) (and (and (and (and (and ( type_9242fdee_0bef_450f_b65d_2a985578da97_Class16 ( obj_cc4953a0_a334_4dff_be8d_c46d6857fdcb o )  )  ( type_9242fdee_0bef_450f_b65d_2a985578da97_Class45 ( obj_cc4953a0_a334_4dff_be8d_c46d6857fdcb o )  ) ) ( type_9242fdee_0bef_450f_b65d_2a985578da97_Class12 ( obj_cc4953a0_a334_4dff_be8d_c46d6857fdcb o )  ) ) ( type_9242fdee_0bef_450f_b65d_2a985578da97_Class33 ( obj_cc4953a0_a334_4dff_be8d_c46d6857fdcb o )  ) ) ( type_9242fdee_0bef_450f_b65d_2a985578da97_Class22 ( obj_cc4953a0_a334_4dff_be8d_c46d6857fdcb o )  ) ) ( type_9242fdee_0bef_450f_b65d_2a985578da97_Class39 ( obj_cc4953a0_a334_4dff_be8d_c46d6857fdcb o )  ) )):named c8))
(assert (! (exists ((o Int)) ( type_9242fdee_0bef_450f_b65d_2a985578da97_Class17 ( obj_cc4953a0_a334_4dff_be8d_c46d6857fdcb o )  ) ):named c9))
(assert (! (exists ((o Int)) (and (and (and ( type_9242fdee_0bef_450f_b65d_2a985578da97_Class18 ( obj_cc4953a0_a334_4dff_be8d_c46d6857fdcb o )  )  ( type_9242fdee_0bef_450f_b65d_2a985578da97_Class25 ( obj_cc4953a0_a334_4dff_be8d_c46d6857fdcb o )  ) ) ( type_9242fdee_0bef_450f_b65d_2a985578da97_Class24 ( obj_cc4953a0_a334_4dff_be8d_c46d6857fdcb o )  ) ) ( type_9242fdee_0bef_450f_b65d_2a985578da97_Class39 ( obj_cc4953a0_a334_4dff_be8d_c46d6857fdcb o )  ) )):named c10))
(assert (! (exists ((o Int)) (and (and (and (and (and (and (and (and (and ( type_9242fdee_0bef_450f_b65d_2a985578da97_Class19 ( obj_cc4953a0_a334_4dff_be8d_c46d6857fdcb o )  )  ( type_9242fdee_0bef_450f_b65d_2a985578da97_Class45 ( obj_cc4953a0_a334_4dff_be8d_c46d6857fdcb o )  ) ) ( type_9242fdee_0bef_450f_b65d_2a985578da97_Class12 ( obj_cc4953a0_a334_4dff_be8d_c46d6857fdcb o )  ) ) ( type_9242fdee_0bef_450f_b65d_2a985578da97_Class55 ( obj_cc4953a0_a334_4dff_be8d_c46d6857fdcb o )  ) ) ( type_9242fdee_0bef_450f_b65d_2a985578da97_Class33 ( obj_cc4953a0_a334_4dff_be8d_c46d6857fdcb o )  ) ) ( type_9242fdee_0bef_450f_b65d_2a985578da97_Class22 ( obj_cc4953a0_a334_4dff_be8d_c46d6857fdcb o )  ) ) ( type_9242fdee_0bef_450f_b65d_2a985578da97_Class29 ( obj_cc4953a0_a334_4dff_be8d_c46d6857fdcb o )  ) ) ( type_9242fdee_0bef_450f_b65d_2a985578da97_Class39 ( obj_cc4953a0_a334_4dff_be8d_c46d6857fdcb o )  ) ) ( type_9242fdee_0bef_450f_b65d_2a985578da97_Class50 ( obj_cc4953a0_a334_4dff_be8d_c46d6857fdcb o )  ) ) ( type_9242fdee_0bef_450f_b65d_2a985578da97_Class41 ( obj_cc4953a0_a334_4dff_be8d_c46d6857fdcb o )  ) )):named c11))
(assert (! (exists ((o Int)) ( type_9242fdee_0bef_450f_b65d_2a985578da97_Class2 ( obj_cc4953a0_a334_4dff_be8d_c46d6857fdcb o )  ) ):named c12))
(assert (! (exists ((o Int)) ( type_9242fdee_0bef_450f_b65d_2a985578da97_Class20 ( obj_cc4953a0_a334_4dff_be8d_c46d6857fdcb o )  ) ):named c13))
(assert (! (exists ((o Int)) (and (and (and (and (and (and (and (and (and ( type_9242fdee_0bef_450f_b65d_2a985578da97_Class21 ( obj_cc4953a0_a334_4dff_be8d_c46d6857fdcb o )  )  ( type_9242fdee_0bef_450f_b65d_2a985578da97_Class45 ( obj_cc4953a0_a334_4dff_be8d_c46d6857fdcb o )  ) ) ( type_9242fdee_0bef_450f_b65d_2a985578da97_Class12 ( obj_cc4953a0_a334_4dff_be8d_c46d6857fdcb o )  ) ) ( type_9242fdee_0bef_450f_b65d_2a985578da97_Class33 ( obj_cc4953a0_a334_4dff_be8d_c46d6857fdcb o )  ) ) ( type_9242fdee_0bef_450f_b65d_2a985578da97_Class22 ( obj_cc4953a0_a334_4dff_be8d_c46d6857fdcb o )  ) ) ( type_9242fdee_0bef_450f_b65d_2a985578da97_Class16 ( obj_cc4953a0_a334_4dff_be8d_c46d6857fdcb o )  ) ) ( type_9242fdee_0bef_450f_b65d_2a985578da97_Class29 ( obj_cc4953a0_a334_4dff_be8d_c46d6857fdcb o )  ) ) ( type_9242fdee_0bef_450f_b65d_2a985578da97_Class39 ( obj_cc4953a0_a334_4dff_be8d_c46d6857fdcb o )  ) ) ( type_9242fdee_0bef_450f_b65d_2a985578da97_Class41 ( obj_cc4953a0_a334_4dff_be8d_c46d6857fdcb o )  ) ) ( type_9242fdee_0bef_450f_b65d_2a985578da97_Class51 ( obj_cc4953a0_a334_4dff_be8d_c46d6857fdcb o )  ) )):named c14))
(assert (! (exists ((o Int)) (and ( type_9242fdee_0bef_450f_b65d_2a985578da97_Class22 ( obj_cc4953a0_a334_4dff_be8d_c46d6857fdcb o )  )  ( type_9242fdee_0bef_450f_b65d_2a985578da97_Class39 ( obj_cc4953a0_a334_4dff_be8d_c46d6857fdcb o )  ) )):named c15))
(assert (! (exists ((o Int)) (and (and (and (and ( type_9242fdee_0bef_450f_b65d_2a985578da97_Class23 ( obj_cc4953a0_a334_4dff_be8d_c46d6857fdcb o )  )  ( type_9242fdee_0bef_450f_b65d_2a985578da97_Class25 ( obj_cc4953a0_a334_4dff_be8d_c46d6857fdcb o )  ) ) ( type_9242fdee_0bef_450f_b65d_2a985578da97_Class24 ( obj_cc4953a0_a334_4dff_be8d_c46d6857fdcb o )  ) ) ( type_9242fdee_0bef_450f_b65d_2a985578da97_Class39 ( obj_cc4953a0_a334_4dff_be8d_c46d6857fdcb o )  ) ) ( type_9242fdee_0bef_450f_b65d_2a985578da97_Class5 ( obj_cc4953a0_a334_4dff_be8d_c46d6857fdcb o )  ) )):named c16))
(assert (! (exists ((o Int)) (and (and ( type_9242fdee_0bef_450f_b65d_2a985578da97_Class24 ( obj_cc4953a0_a334_4dff_be8d_c46d6857fdcb o )  )  ( type_9242fdee_0bef_450f_b65d_2a985578da97_Class25 ( obj_cc4953a0_a334_4dff_be8d_c46d6857fdcb o )  ) ) ( type_9242fdee_0bef_450f_b65d_2a985578da97_Class39 ( obj_cc4953a0_a334_4dff_be8d_c46d6857fdcb o )  ) )):named c17))
(assert (! (exists ((o Int)) (and ( type_9242fdee_0bef_450f_b65d_2a985578da97_Class25 ( obj_cc4953a0_a334_4dff_be8d_c46d6857fdcb o )  )  ( type_9242fdee_0bef_450f_b65d_2a985578da97_Class39 ( obj_cc4953a0_a334_4dff_be8d_c46d6857fdcb o )  ) )):named c18))
(assert (! (exists ((o Int)) ( type_9242fdee_0bef_450f_b65d_2a985578da97_Class26 ( obj_cc4953a0_a334_4dff_be8d_c46d6857fdcb o )  ) ):named c19))
(assert (! (exists ((o Int)) ( type_9242fdee_0bef_450f_b65d_2a985578da97_Class27 ( obj_cc4953a0_a334_4dff_be8d_c46d6857fdcb o )  ) ):named c20))
(assert (! (exists ((o Int)) (and (and (and (and (and (and (and ( type_9242fdee_0bef_450f_b65d_2a985578da97_Class28 ( obj_cc4953a0_a334_4dff_be8d_c46d6857fdcb o )  )  ( type_9242fdee_0bef_450f_b65d_2a985578da97_Class45 ( obj_cc4953a0_a334_4dff_be8d_c46d6857fdcb o )  ) ) ( type_9242fdee_0bef_450f_b65d_2a985578da97_Class12 ( obj_cc4953a0_a334_4dff_be8d_c46d6857fdcb o )  ) ) ( type_9242fdee_0bef_450f_b65d_2a985578da97_Class33 ( obj_cc4953a0_a334_4dff_be8d_c46d6857fdcb o )  ) ) ( type_9242fdee_0bef_450f_b65d_2a985578da97_Class22 ( obj_cc4953a0_a334_4dff_be8d_c46d6857fdcb o )  ) ) ( type_9242fdee_0bef_450f_b65d_2a985578da97_Class29 ( obj_cc4953a0_a334_4dff_be8d_c46d6857fdcb o )  ) ) ( type_9242fdee_0bef_450f_b65d_2a985578da97_Class39 ( obj_cc4953a0_a334_4dff_be8d_c46d6857fdcb o )  ) ) ( type_9242fdee_0bef_450f_b65d_2a985578da97_Class41 ( obj_cc4953a0_a334_4dff_be8d_c46d6857fdcb o )  ) )):named c21))
(assert (! (exists ((o Int)) (and (and (and (and (and (and ( type_9242fdee_0bef_450f_b65d_2a985578da97_Class29 ( obj_cc4953a0_a334_4dff_be8d_c46d6857fdcb o )  )  ( type_9242fdee_0bef_450f_b65d_2a985578da97_Class45 ( obj_cc4953a0_a334_4dff_be8d_c46d6857fdcb o )  ) ) ( type_9242fdee_0bef_450f_b65d_2a985578da97_Class12 ( obj_cc4953a0_a334_4dff_be8d_c46d6857fdcb o )  ) ) ( type_9242fdee_0bef_450f_b65d_2a985578da97_Class33 ( obj_cc4953a0_a334_4dff_be8d_c46d6857fdcb o )  ) ) ( type_9242fdee_0bef_450f_b65d_2a985578da97_Class22 ( obj_cc4953a0_a334_4dff_be8d_c46d6857fdcb o )  ) ) ( type_9242fdee_0bef_450f_b65d_2a985578da97_Class39 ( obj_cc4953a0_a334_4dff_be8d_c46d6857fdcb o )  ) ) ( type_9242fdee_0bef_450f_b65d_2a985578da97_Class41 ( obj_cc4953a0_a334_4dff_be8d_c46d6857fdcb o )  ) )):named c22))
(assert (! (exists ((o Int)) (and (and (and ( type_9242fdee_0bef_450f_b65d_2a985578da97_Class3 ( obj_cc4953a0_a334_4dff_be8d_c46d6857fdcb o )  )  ( type_9242fdee_0bef_450f_b65d_2a985578da97_Class25 ( obj_cc4953a0_a334_4dff_be8d_c46d6857fdcb o )  ) ) ( type_9242fdee_0bef_450f_b65d_2a985578da97_Class24 ( obj_cc4953a0_a334_4dff_be8d_c46d6857fdcb o )  ) ) ( type_9242fdee_0bef_450f_b65d_2a985578da97_Class39 ( obj_cc4953a0_a334_4dff_be8d_c46d6857fdcb o )  ) )):named c23))
(assert (! (exists ((o Int)) (and ( type_9242fdee_0bef_450f_b65d_2a985578da97_Class30 ( obj_cc4953a0_a334_4dff_be8d_c46d6857fdcb o )  )  ( type_9242fdee_0bef_450f_b65d_2a985578da97_Class39 ( obj_cc4953a0_a334_4dff_be8d_c46d6857fdcb o )  ) )):named c24))
(assert (! (exists ((o Int)) (and (and (and (and (and ( type_9242fdee_0bef_450f_b65d_2a985578da97_Class31 ( obj_cc4953a0_a334_4dff_be8d_c46d6857fdcb o )  )  ( type_9242fdee_0bef_450f_b65d_2a985578da97_Class45 ( obj_cc4953a0_a334_4dff_be8d_c46d6857fdcb o )  ) ) ( type_9242fdee_0bef_450f_b65d_2a985578da97_Class12 ( obj_cc4953a0_a334_4dff_be8d_c46d6857fdcb o )  ) ) ( type_9242fdee_0bef_450f_b65d_2a985578da97_Class33 ( obj_cc4953a0_a334_4dff_be8d_c46d6857fdcb o )  ) ) ( type_9242fdee_0bef_450f_b65d_2a985578da97_Class22 ( obj_cc4953a0_a334_4dff_be8d_c46d6857fdcb o )  ) ) ( type_9242fdee_0bef_450f_b65d_2a985578da97_Class39 ( obj_cc4953a0_a334_4dff_be8d_c46d6857fdcb o )  ) )):named c25))
(assert (! (exists ((o Int)) ( type_9242fdee_0bef_450f_b65d_2a985578da97_Class32 ( obj_cc4953a0_a334_4dff_be8d_c46d6857fdcb o )  ) ):named c26))
(assert (! (exists ((o Int)) (and (and ( type_9242fdee_0bef_450f_b65d_2a985578da97_Class33 ( obj_cc4953a0_a334_4dff_be8d_c46d6857fdcb o )  )  ( type_9242fdee_0bef_450f_b65d_2a985578da97_Class22 ( obj_cc4953a0_a334_4dff_be8d_c46d6857fdcb o )  ) ) ( type_9242fdee_0bef_450f_b65d_2a985578da97_Class39 ( obj_cc4953a0_a334_4dff_be8d_c46d6857fdcb o )  ) )):named c27))
(assert (! (exists ((o Int)) (and (and (and ( type_9242fdee_0bef_450f_b65d_2a985578da97_Class34 ( obj_cc4953a0_a334_4dff_be8d_c46d6857fdcb o )  )  ( type_9242fdee_0bef_450f_b65d_2a985578da97_Class25 ( obj_cc4953a0_a334_4dff_be8d_c46d6857fdcb o )  ) ) ( type_9242fdee_0bef_450f_b65d_2a985578da97_Class24 ( obj_cc4953a0_a334_4dff_be8d_c46d6857fdcb o )  ) ) ( type_9242fdee_0bef_450f_b65d_2a985578da97_Class39 ( obj_cc4953a0_a334_4dff_be8d_c46d6857fdcb o )  ) )):named c28))
(assert (! (exists ((o Int)) (and (and ( type_9242fdee_0bef_450f_b65d_2a985578da97_Class35 ( obj_cc4953a0_a334_4dff_be8d_c46d6857fdcb o )  )  ( type_9242fdee_0bef_450f_b65d_2a985578da97_Class39 ( obj_cc4953a0_a334_4dff_be8d_c46d6857fdcb o )  ) ) ( type_9242fdee_0bef_450f_b65d_2a985578da97_Class30 ( obj_cc4953a0_a334_4dff_be8d_c46d6857fdcb o )  ) )):named c29))
(assert (! (exists ((o Int)) ( type_9242fdee_0bef_450f_b65d_2a985578da97_Class36 ( obj_cc4953a0_a334_4dff_be8d_c46d6857fdcb o )  ) ):named c30))
(assert (! (exists ((o Int)) ( type_9242fdee_0bef_450f_b65d_2a985578da97_Class37 ( obj_cc4953a0_a334_4dff_be8d_c46d6857fdcb o )  ) ):named c31))
(assert (! (exists ((o Int)) ( type_9242fdee_0bef_450f_b65d_2a985578da97_Class38 ( obj_cc4953a0_a334_4dff_be8d_c46d6857fdcb o )  ) ):named c32))
(assert (! (exists ((o Int)) ( type_9242fdee_0bef_450f_b65d_2a985578da97_Class39 ( obj_cc4953a0_a334_4dff_be8d_c46d6857fdcb o )  ) ):named c33))
(assert (! (exists ((o Int)) ( type_9242fdee_0bef_450f_b65d_2a985578da97_Class4 ( obj_cc4953a0_a334_4dff_be8d_c46d6857fdcb o )  ) ):named c34))
(assert (! (exists ((o Int)) (and (and (and (and (and (and (and (and (and ( type_9242fdee_0bef_450f_b65d_2a985578da97_Class40 ( obj_cc4953a0_a334_4dff_be8d_c46d6857fdcb o )  )  ( type_9242fdee_0bef_450f_b65d_2a985578da97_Class45 ( obj_cc4953a0_a334_4dff_be8d_c46d6857fdcb o )  ) ) ( type_9242fdee_0bef_450f_b65d_2a985578da97_Class12 ( obj_cc4953a0_a334_4dff_be8d_c46d6857fdcb o )  ) ) ( type_9242fdee_0bef_450f_b65d_2a985578da97_Class55 ( obj_cc4953a0_a334_4dff_be8d_c46d6857fdcb o )  ) ) ( type_9242fdee_0bef_450f_b65d_2a985578da97_Class33 ( obj_cc4953a0_a334_4dff_be8d_c46d6857fdcb o )  ) ) ( type_9242fdee_0bef_450f_b65d_2a985578da97_Class22 ( obj_cc4953a0_a334_4dff_be8d_c46d6857fdcb o )  ) ) ( type_9242fdee_0bef_450f_b65d_2a985578da97_Class29 ( obj_cc4953a0_a334_4dff_be8d_c46d6857fdcb o )  ) ) ( type_9242fdee_0bef_450f_b65d_2a985578da97_Class39 ( obj_cc4953a0_a334_4dff_be8d_c46d6857fdcb o )  ) ) ( type_9242fdee_0bef_450f_b65d_2a985578da97_Class50 ( obj_cc4953a0_a334_4dff_be8d_c46d6857fdcb o )  ) ) ( type_9242fdee_0bef_450f_b65d_2a985578da97_Class41 ( obj_cc4953a0_a334_4dff_be8d_c46d6857fdcb o )  ) )):named c35))
(assert (! (exists ((o Int)) (and (and (and (and (and ( type_9242fdee_0bef_450f_b65d_2a985578da97_Class41 ( obj_cc4953a0_a334_4dff_be8d_c46d6857fdcb o )  )  ( type_9242fdee_0bef_450f_b65d_2a985578da97_Class45 ( obj_cc4953a0_a334_4dff_be8d_c46d6857fdcb o )  ) ) ( type_9242fdee_0bef_450f_b65d_2a985578da97_Class12 ( obj_cc4953a0_a334_4dff_be8d_c46d6857fdcb o )  ) ) ( type_9242fdee_0bef_450f_b65d_2a985578da97_Class33 ( obj_cc4953a0_a334_4dff_be8d_c46d6857fdcb o )  ) ) ( type_9242fdee_0bef_450f_b65d_2a985578da97_Class22 ( obj_cc4953a0_a334_4dff_be8d_c46d6857fdcb o )  ) ) ( type_9242fdee_0bef_450f_b65d_2a985578da97_Class39 ( obj_cc4953a0_a334_4dff_be8d_c46d6857fdcb o )  ) )):named c36))
(assert (! (exists ((o Int)) (and ( type_9242fdee_0bef_450f_b65d_2a985578da97_Class42 ( obj_cc4953a0_a334_4dff_be8d_c46d6857fdcb o )  )  ( type_9242fdee_0bef_450f_b65d_2a985578da97_Class39 ( obj_cc4953a0_a334_4dff_be8d_c46d6857fdcb o )  ) )):named c37))
(assert (! (exists ((o Int)) ( type_9242fdee_0bef_450f_b65d_2a985578da97_Class43 ( obj_cc4953a0_a334_4dff_be8d_c46d6857fdcb o )  ) ):named c38))
(assert (! (exists ((o Int)) (and (and (and (and (and (and (and ( type_9242fdee_0bef_450f_b65d_2a985578da97_Class44 ( obj_cc4953a0_a334_4dff_be8d_c46d6857fdcb o )  )  ( type_9242fdee_0bef_450f_b65d_2a985578da97_Class45 ( obj_cc4953a0_a334_4dff_be8d_c46d6857fdcb o )  ) ) ( type_9242fdee_0bef_450f_b65d_2a985578da97_Class12 ( obj_cc4953a0_a334_4dff_be8d_c46d6857fdcb o )  ) ) ( type_9242fdee_0bef_450f_b65d_2a985578da97_Class33 ( obj_cc4953a0_a334_4dff_be8d_c46d6857fdcb o )  ) ) ( type_9242fdee_0bef_450f_b65d_2a985578da97_Class22 ( obj_cc4953a0_a334_4dff_be8d_c46d6857fdcb o )  ) ) ( type_9242fdee_0bef_450f_b65d_2a985578da97_Class29 ( obj_cc4953a0_a334_4dff_be8d_c46d6857fdcb o )  ) ) ( type_9242fdee_0bef_450f_b65d_2a985578da97_Class39 ( obj_cc4953a0_a334_4dff_be8d_c46d6857fdcb o )  ) ) ( type_9242fdee_0bef_450f_b65d_2a985578da97_Class41 ( obj_cc4953a0_a334_4dff_be8d_c46d6857fdcb o )  ) )):named c39))
(assert (! (exists ((o Int)) (and (and (and (and ( type_9242fdee_0bef_450f_b65d_2a985578da97_Class45 ( obj_cc4953a0_a334_4dff_be8d_c46d6857fdcb o )  )  ( type_9242fdee_0bef_450f_b65d_2a985578da97_Class12 ( obj_cc4953a0_a334_4dff_be8d_c46d6857fdcb o )  ) ) ( type_9242fdee_0bef_450f_b65d_2a985578da97_Class33 ( obj_cc4953a0_a334_4dff_be8d_c46d6857fdcb o )  ) ) ( type_9242fdee_0bef_450f_b65d_2a985578da97_Class22 ( obj_cc4953a0_a334_4dff_be8d_c46d6857fdcb o )  ) ) ( type_9242fdee_0bef_450f_b65d_2a985578da97_Class39 ( obj_cc4953a0_a334_4dff_be8d_c46d6857fdcb o )  ) )):named c40))
(assert (! (exists ((o Int)) (and (and ( type_9242fdee_0bef_450f_b65d_2a985578da97_Class46 ( obj_cc4953a0_a334_4dff_be8d_c46d6857fdcb o )  )  ( type_9242fdee_0bef_450f_b65d_2a985578da97_Class39 ( obj_cc4953a0_a334_4dff_be8d_c46d6857fdcb o )  ) ) ( type_9242fdee_0bef_450f_b65d_2a985578da97_Class5 ( obj_cc4953a0_a334_4dff_be8d_c46d6857fdcb o )  ) )):named c41))
(assert (! (exists ((o Int)) ( type_9242fdee_0bef_450f_b65d_2a985578da97_Class47 ( obj_cc4953a0_a334_4dff_be8d_c46d6857fdcb o )  ) ):named c42))
(assert (! (exists ((o Int)) (and (and (and (and (and (and (and (and (and ( type_9242fdee_0bef_450f_b65d_2a985578da97_Class48 ( obj_cc4953a0_a334_4dff_be8d_c46d6857fdcb o )  )  ( type_9242fdee_0bef_450f_b65d_2a985578da97_Class45 ( obj_cc4953a0_a334_4dff_be8d_c46d6857fdcb o )  ) ) ( type_9242fdee_0bef_450f_b65d_2a985578da97_Class12 ( obj_cc4953a0_a334_4dff_be8d_c46d6857fdcb o )  ) ) ( type_9242fdee_0bef_450f_b65d_2a985578da97_Class55 ( obj_cc4953a0_a334_4dff_be8d_c46d6857fdcb o )  ) ) ( type_9242fdee_0bef_450f_b65d_2a985578da97_Class33 ( obj_cc4953a0_a334_4dff_be8d_c46d6857fdcb o )  ) ) ( type_9242fdee_0bef_450f_b65d_2a985578da97_Class22 ( obj_cc4953a0_a334_4dff_be8d_c46d6857fdcb o )  ) ) ( type_9242fdee_0bef_450f_b65d_2a985578da97_Class29 ( obj_cc4953a0_a334_4dff_be8d_c46d6857fdcb o )  ) ) ( type_9242fdee_0bef_450f_b65d_2a985578da97_Class39 ( obj_cc4953a0_a334_4dff_be8d_c46d6857fdcb o )  ) ) ( type_9242fdee_0bef_450f_b65d_2a985578da97_Class50 ( obj_cc4953a0_a334_4dff_be8d_c46d6857fdcb o )  ) ) ( type_9242fdee_0bef_450f_b65d_2a985578da97_Class41 ( obj_cc4953a0_a334_4dff_be8d_c46d6857fdcb o )  ) )):named c43))
(assert (! (exists ((o Int)) (and (and (and (and (and (and (and (and (and ( type_9242fdee_0bef_450f_b65d_2a985578da97_Class49 ( obj_cc4953a0_a334_4dff_be8d_c46d6857fdcb o )  )  ( type_9242fdee_0bef_450f_b65d_2a985578da97_Class45 ( obj_cc4953a0_a334_4dff_be8d_c46d6857fdcb o )  ) ) ( type_9242fdee_0bef_450f_b65d_2a985578da97_Class12 ( obj_cc4953a0_a334_4dff_be8d_c46d6857fdcb o )  ) ) ( type_9242fdee_0bef_450f_b65d_2a985578da97_Class55 ( obj_cc4953a0_a334_4dff_be8d_c46d6857fdcb o )  ) ) ( type_9242fdee_0bef_450f_b65d_2a985578da97_Class33 ( obj_cc4953a0_a334_4dff_be8d_c46d6857fdcb o )  ) ) ( type_9242fdee_0bef_450f_b65d_2a985578da97_Class22 ( obj_cc4953a0_a334_4dff_be8d_c46d6857fdcb o )  ) ) ( type_9242fdee_0bef_450f_b65d_2a985578da97_Class29 ( obj_cc4953a0_a334_4dff_be8d_c46d6857fdcb o )  ) ) ( type_9242fdee_0bef_450f_b65d_2a985578da97_Class39 ( obj_cc4953a0_a334_4dff_be8d_c46d6857fdcb o )  ) ) ( type_9242fdee_0bef_450f_b65d_2a985578da97_Class50 ( obj_cc4953a0_a334_4dff_be8d_c46d6857fdcb o )  ) ) ( type_9242fdee_0bef_450f_b65d_2a985578da97_Class41 ( obj_cc4953a0_a334_4dff_be8d_c46d6857fdcb o )  ) )):named c44))
(assert (! (exists ((o Int)) (and ( type_9242fdee_0bef_450f_b65d_2a985578da97_Class5 ( obj_cc4953a0_a334_4dff_be8d_c46d6857fdcb o )  )  ( type_9242fdee_0bef_450f_b65d_2a985578da97_Class39 ( obj_cc4953a0_a334_4dff_be8d_c46d6857fdcb o )  ) )):named c45))
(assert (! (exists ((o Int)) (and (and (and (and (and (and (and (and ( type_9242fdee_0bef_450f_b65d_2a985578da97_Class50 ( obj_cc4953a0_a334_4dff_be8d_c46d6857fdcb o )  )  ( type_9242fdee_0bef_450f_b65d_2a985578da97_Class45 ( obj_cc4953a0_a334_4dff_be8d_c46d6857fdcb o )  ) ) ( type_9242fdee_0bef_450f_b65d_2a985578da97_Class12 ( obj_cc4953a0_a334_4dff_be8d_c46d6857fdcb o )  ) ) ( type_9242fdee_0bef_450f_b65d_2a985578da97_Class55 ( obj_cc4953a0_a334_4dff_be8d_c46d6857fdcb o )  ) ) ( type_9242fdee_0bef_450f_b65d_2a985578da97_Class33 ( obj_cc4953a0_a334_4dff_be8d_c46d6857fdcb o )  ) ) ( type_9242fdee_0bef_450f_b65d_2a985578da97_Class22 ( obj_cc4953a0_a334_4dff_be8d_c46d6857fdcb o )  ) ) ( type_9242fdee_0bef_450f_b65d_2a985578da97_Class29 ( obj_cc4953a0_a334_4dff_be8d_c46d6857fdcb o )  ) ) ( type_9242fdee_0bef_450f_b65d_2a985578da97_Class39 ( obj_cc4953a0_a334_4dff_be8d_c46d6857fdcb o )  ) ) ( type_9242fdee_0bef_450f_b65d_2a985578da97_Class41 ( obj_cc4953a0_a334_4dff_be8d_c46d6857fdcb o )  ) )):named c46))
(assert (! (exists ((o Int)) (and (and (and (and (and (and ( type_9242fdee_0bef_450f_b65d_2a985578da97_Class51 ( obj_cc4953a0_a334_4dff_be8d_c46d6857fdcb o )  )  ( type_9242fdee_0bef_450f_b65d_2a985578da97_Class45 ( obj_cc4953a0_a334_4dff_be8d_c46d6857fdcb o )  ) ) ( type_9242fdee_0bef_450f_b65d_2a985578da97_Class12 ( obj_cc4953a0_a334_4dff_be8d_c46d6857fdcb o )  ) ) ( type_9242fdee_0bef_450f_b65d_2a985578da97_Class33 ( obj_cc4953a0_a334_4dff_be8d_c46d6857fdcb o )  ) ) ( type_9242fdee_0bef_450f_b65d_2a985578da97_Class22 ( obj_cc4953a0_a334_4dff_be8d_c46d6857fdcb o )  ) ) ( type_9242fdee_0bef_450f_b65d_2a985578da97_Class16 ( obj_cc4953a0_a334_4dff_be8d_c46d6857fdcb o )  ) ) ( type_9242fdee_0bef_450f_b65d_2a985578da97_Class39 ( obj_cc4953a0_a334_4dff_be8d_c46d6857fdcb o )  ) )):named c47))
(assert (! (exists ((o Int)) (and (and (and (and (and ( type_9242fdee_0bef_450f_b65d_2a985578da97_Class52 ( obj_cc4953a0_a334_4dff_be8d_c46d6857fdcb o )  )  ( type_9242fdee_0bef_450f_b65d_2a985578da97_Class45 ( obj_cc4953a0_a334_4dff_be8d_c46d6857fdcb o )  ) ) ( type_9242fdee_0bef_450f_b65d_2a985578da97_Class12 ( obj_cc4953a0_a334_4dff_be8d_c46d6857fdcb o )  ) ) ( type_9242fdee_0bef_450f_b65d_2a985578da97_Class33 ( obj_cc4953a0_a334_4dff_be8d_c46d6857fdcb o )  ) ) ( type_9242fdee_0bef_450f_b65d_2a985578da97_Class22 ( obj_cc4953a0_a334_4dff_be8d_c46d6857fdcb o )  ) ) ( type_9242fdee_0bef_450f_b65d_2a985578da97_Class39 ( obj_cc4953a0_a334_4dff_be8d_c46d6857fdcb o )  ) )):named c48))
(assert (! (exists ((o Int)) ( type_9242fdee_0bef_450f_b65d_2a985578da97_Class53 ( obj_cc4953a0_a334_4dff_be8d_c46d6857fdcb o )  ) ):named c49))
(assert (! (exists ((o Int)) ( type_9242fdee_0bef_450f_b65d_2a985578da97_Class54 ( obj_cc4953a0_a334_4dff_be8d_c46d6857fdcb o )  ) ):named c50))
(assert (! (exists ((o Int)) (and (and (and (and (and (and (and ( type_9242fdee_0bef_450f_b65d_2a985578da97_Class55 ( obj_cc4953a0_a334_4dff_be8d_c46d6857fdcb o )  )  ( type_9242fdee_0bef_450f_b65d_2a985578da97_Class45 ( obj_cc4953a0_a334_4dff_be8d_c46d6857fdcb o )  ) ) ( type_9242fdee_0bef_450f_b65d_2a985578da97_Class12 ( obj_cc4953a0_a334_4dff_be8d_c46d6857fdcb o )  ) ) ( type_9242fdee_0bef_450f_b65d_2a985578da97_Class33 ( obj_cc4953a0_a334_4dff_be8d_c46d6857fdcb o )  ) ) ( type_9242fdee_0bef_450f_b65d_2a985578da97_Class22 ( obj_cc4953a0_a334_4dff_be8d_c46d6857fdcb o )  ) ) ( type_9242fdee_0bef_450f_b65d_2a985578da97_Class29 ( obj_cc4953a0_a334_4dff_be8d_c46d6857fdcb o )  ) ) ( type_9242fdee_0bef_450f_b65d_2a985578da97_Class39 ( obj_cc4953a0_a334_4dff_be8d_c46d6857fdcb o )  ) ) ( type_9242fdee_0bef_450f_b65d_2a985578da97_Class41 ( obj_cc4953a0_a334_4dff_be8d_c46d6857fdcb o )  ) )):named c51))
(assert (! (exists ((o Int)) ( type_9242fdee_0bef_450f_b65d_2a985578da97_Class6 ( obj_cc4953a0_a334_4dff_be8d_c46d6857fdcb o )  ) ):named c52))
(assert (! (exists ((o Int)) (and (and (and (and (and (and (and (and (and ( type_9242fdee_0bef_450f_b65d_2a985578da97_Class7 ( obj_cc4953a0_a334_4dff_be8d_c46d6857fdcb o )  )  ( type_9242fdee_0bef_450f_b65d_2a985578da97_Class45 ( obj_cc4953a0_a334_4dff_be8d_c46d6857fdcb o )  ) ) ( type_9242fdee_0bef_450f_b65d_2a985578da97_Class12 ( obj_cc4953a0_a334_4dff_be8d_c46d6857fdcb o )  ) ) ( type_9242fdee_0bef_450f_b65d_2a985578da97_Class55 ( obj_cc4953a0_a334_4dff_be8d_c46d6857fdcb o )  ) ) ( type_9242fdee_0bef_450f_b65d_2a985578da97_Class33 ( obj_cc4953a0_a334_4dff_be8d_c46d6857fdcb o )  ) ) ( type_9242fdee_0bef_450f_b65d_2a985578da97_Class22 ( obj_cc4953a0_a334_4dff_be8d_c46d6857fdcb o )  ) ) ( type_9242fdee_0bef_450f_b65d_2a985578da97_Class29 ( obj_cc4953a0_a334_4dff_be8d_c46d6857fdcb o )  ) ) ( type_9242fdee_0bef_450f_b65d_2a985578da97_Class39 ( obj_cc4953a0_a334_4dff_be8d_c46d6857fdcb o )  ) ) ( type_9242fdee_0bef_450f_b65d_2a985578da97_Class50 ( obj_cc4953a0_a334_4dff_be8d_c46d6857fdcb o )  ) ) ( type_9242fdee_0bef_450f_b65d_2a985578da97_Class41 ( obj_cc4953a0_a334_4dff_be8d_c46d6857fdcb o )  ) )):named c53))
(assert (! (exists ((o Int)) (and ( type_9242fdee_0bef_450f_b65d_2a985578da97_Class8 ( obj_cc4953a0_a334_4dff_be8d_c46d6857fdcb o )  )  ( type_9242fdee_0bef_450f_b65d_2a985578da97_Class39 ( obj_cc4953a0_a334_4dff_be8d_c46d6857fdcb o )  ) )):named c54))
(assert (! (exists ((o Int)) ( type_9242fdee_0bef_450f_b65d_2a985578da97_Class9 ( obj_cc4953a0_a334_4dff_be8d_c46d6857fdcb o )  ) ):named c55))

 ;end of formula 